
Gurobi 10.0.1 (linux64) logging started Thu May 25 16:45:39 2023

Set parameter LogFile to value "logFiles/N-1L-B/N-1L-13U-32F-23V-365D/basic-05-25-2023, 16-45-H70-P50-O15.log"
Gurobi Optimizer version 10.0.1 build v10.0.1rc0 (linux64)

CPU model: Intel(R) Xeon(R) Gold 5115 CPU @ 2.40GHz, instruction set [SSE2|AVX|AVX2|AVX512]
Thread count: 20 physical cores, 40 logical processors, using up to 20 threads

Optimize a model with 104084 rows, 1108500 columns and 6337026 nonzeros
Model fingerprint: 0x50732f83
Variable types: 401573 continuous, 706927 integer (706927 binary)
Coefficient statistics:
  Matrix range     [1e+00, 2e+05]
  Objective range  [4e+01, 3e+07]
  Bounds range     [1e+00, 1e+00]
  RHS range        [1e+00, 2e+06]
Presolve removed 66978 rows and 0 columns
Presolve time: 0.37s

Explored 0 nodes (0 simplex iterations) in 0.83 seconds (0.17 work units)
Thread count was 1 (of 40 available processors)

Solution count 0

Model is infeasible or unbounded
Best objective -, best bound -, gap -
IIS computation: initial model status unknown, solving to determine model status
Presolve removed 66978 rows and 0 columns
Presolve time: 0.33s

Explored 0 nodes (0 simplex iterations) in 1.20 seconds (0.17 work units)
Thread count was 1 (of 40 available processors)

Solution count 0
No other solutions better than -1e+100

Model is infeasible
Best objective -, best bound -, gap -

IIS computed: 1 constraints, 0 bounds
IIS runtime: 1.35 seconds (0.17 work units)
